c Reduced graph for mulsol.i.5_5 generated by Cyril Grelier
p edge 113 2350
e 1 2
e 1 19
e 1 20
e 1 21
e 1 22
e 1 23
e 1 24
e 1 25
e 1 26
e 1 27
e 1 28
e 1 29
e 1 30
e 1 31
e 1 32
e 1 33
e 1 34
e 1 35
e 1 36
e 1 37
e 1 38
e 1 39
e 1 40
e 1 41
e 1 42
e 1 43
e 1 44
e 1 45
e 1 46
e 1 47
e 1 48
e 1 49
e 1 50
e 1 51
e 1 52
e 1 53
e 1 54
e 1 55
e 1 56
e 1 57
e 1 58
e 1 59
e 1 60
e 1 61
e 1 62
e 1 63
e 1 64
e 1 65
e 1 66
e 1 67
e 1 68
e 1 69
e 1 70
e 1 71
e 1 72
e 1 73
e 1 74
e 1 75
e 1 76
e 1 77
e 1 78
e 1 79
e 1 80
e 1 81
e 1 82
e 1 83
e 1 84
e 1 85
e 1 86
e 1 87
e 1 88
e 1 89
e 1 90
e 1 91
e 1 92
e 1 93
e 1 94
e 1 95
e 1 96
e 1 97
e 1 98
e 1 99
e 1 100
e 1 101
e 1 102
e 1 103
e 1 104
e 1 105
e 1 106
e 1 107
e 1 108
e 1 109
e 1 110
e 1 111
e 1 112
e 1 113
e 2 19
e 2 20
e 2 21
e 2 22
e 2 23
e 2 24
e 2 25
e 2 26
e 2 27
e 2 28
e 2 29
e 2 30
e 2 31
e 2 32
e 2 33
e 2 34
e 2 35
e 2 36
e 2 37
e 2 38
e 2 39
e 2 40
e 2 41
e 2 42
e 2 43
e 2 44
e 2 45
e 2 46
e 2 47
e 2 48
e 2 49
e 2 50
e 2 51
e 2 52
e 2 53
e 2 54
e 2 55
e 2 56
e 2 57
e 2 58
e 2 59
e 2 60
e 2 61
e 2 62
e 2 63
e 2 64
e 2 65
e 2 66
e 2 67
e 2 68
e 2 69
e 2 70
e 2 71
e 2 72
e 2 73
e 2 74
e 2 75
e 2 76
e 2 77
e 2 78
e 2 79
e 2 80
e 2 81
e 2 82
e 2 83
e 2 84
e 2 85
e 2 86
e 2 87
e 2 88
e 2 89
e 2 90
e 2 91
e 2 92
e 2 93
e 2 94
e 2 95
e 2 96
e 2 97
e 2 98
e 2 99
e 2 100
e 2 101
e 2 102
e 2 103
e 2 104
e 2 105
e 2 106
e 2 107
e 2 108
e 2 109
e 2 110
e 2 111
e 2 112
e 2 113
e 3 4
e 3 5
e 3 6
e 3 7
e 3 8
e 3 9
e 3 10
e 3 11
e 3 12
e 3 13
e 3 14
e 3 15
e 3 16
e 3 17
e 3 18
e 3 19
e 3 20
e 3 24
e 3 25
e 3 26
e 3 27
e 3 29
e 3 30
e 3 32
e 3 33
e 3 34
e 3 36
e 3 37
e 3 38
e 3 41
e 3 42
e 3 47
e 3 50
e 3 51
e 3 52
e 3 53
e 3 54
e 3 55
e 3 56
e 3 57
e 3 58
e 3 59
e 3 60
e 3 61
e 3 62
e 3 63
e 3 64
e 3 65
e 3 66
e 3 67
e 3 68
e 3 69
e 3 70
e 3 71
e 3 72
e 3 73
e 3 74
e 3 75
e 3 76
e 3 77
e 3 78
e 3 79
e 3 80
e 3 81
e 3 82
e 3 83
e 3 84
e 3 85
e 3 86
e 3 87
e 3 88
e 3 89
e 3 90
e 3 91
e 3 92
e 3 93
e 3 94
e 3 95
e 3 96
e 3 97
e 3 98
e 3 99
e 3 100
e 3 101
e 3 102
e 3 103
e 3 104
e 3 105
e 3 106
e 3 107
e 3 108
e 3 109
e 3 110
e 3 111
e 3 112
e 3 113
e 4 5
e 4 6
e 4 7
e 4 8
e 4 9
e 4 10
e 4 11
e 4 12
e 4 13
e 4 14
e 4 15
e 4 16
e 4 17
e 4 18
e 4 19
e 4 20
e 4 24
e 4 25
e 4 26
e 4 27
e 4 29
e 4 30
e 4 32
e 4 33
e 4 34
e 4 36
e 4 37
e 4 38
e 4 41
e 4 42
e 4 56
e 4 57
e 4 58
e 4 59
e 4 60
e 4 61
e 4 64
e 4 65
e 4 66
e 4 67
e 4 68
e 4 73
e 4 74
e 4 76
e 4 78
e 4 79
e 4 80
e 4 81
e 4 82
e 4 83
e 4 84
e 4 87
e 4 88
e 4 93
e 4 94
e 4 95
e 4 96
e 4 97
e 4 98
e 4 99
e 4 100
e 4 101
e 4 102
e 4 103
e 4 104
e 4 105
e 4 106
e 4 107
e 4 108
e 4 109
e 4 110
e 4 111
e 4 112
e 4 113
e 5 6
e 5 7
e 5 8
e 5 9
e 5 10
e 5 11
e 5 12
e 5 13
e 5 14
e 5 15
e 5 16
e 5 17
e 5 18
e 5 19
e 5 20
e 5 24
e 5 25
e 5 26
e 5 27
e 5 29
e 5 30
e 5 32
e 5 33
e 5 34
e 5 36
e 5 37
e 5 38
e 5 42
e 5 56
e 5 57
e 5 58
e 5 59
e 5 60
e 5 61
e 5 64
e 5 65
e 5 66
e 5 67
e 5 68
e 5 73
e 5 74
e 5 76
e 5 78
e 5 79
e 5 80
e 5 81
e 5 82
e 5 83
e 5 84
e 5 87
e 5 88
e 5 93
e 5 94
e 5 95
e 5 96
e 5 97
e 5 98
e 5 99
e 5 100
e 5 101
e 5 102
e 5 103
e 5 104
e 5 105
e 5 106
e 5 107
e 5 108
e 5 109
e 5 110
e 5 111
e 5 112
e 5 113
e 6 7
e 6 8
e 6 9
e 6 10
e 6 11
e 6 12
e 6 13
e 6 14
e 6 15
e 6 16
e 6 17
e 6 18
e 6 19
e 6 20
e 6 24
e 6 25
e 6 26
e 6 27
e 6 29
e 6 30
e 6 32
e 6 33
e 6 34
e 6 37
e 6 38
e 6 42
e 6 56
e 6 57
e 6 58
e 6 59
e 6 60
e 6 61
e 6 64
e 6 65
e 6 66
e 6 67
e 6 68
e 6 73
e 6 74
e 6 76
e 6 78
e 6 79
e 6 80
e 6 81
e 6 82
e 6 83
e 6 84
e 6 87
e 6 88
e 6 93
e 6 94
e 6 95
e 6 96
e 6 97
e 6 98
e 6 99
e 6 100
e 6 101
e 6 102
e 6 103
e 6 104
e 6 105
e 6 106
e 6 107
e 6 108
e 6 109
e 6 110
e 6 111
e 6 112
e 6 113
e 7 8
e 7 9
e 7 10
e 7 11
e 7 12
e 7 13
e 7 14
e 7 15
e 7 16
e 7 17
e 7 18
e 7 19
e 7 20
e 7 24
e 7 25
e 7 26
e 7 27
e 7 29
e 7 30
e 7 33
e 7 34
e 7 37
e 7 38
e 7 42
e 7 56
e 7 57
e 7 58
e 7 59
e 7 60
e 7 61
e 7 64
e 7 65
e 7 66
e 7 67
e 7 68
e 7 73
e 7 74
e 7 76
e 7 78
e 7 79
e 7 80
e 7 81
e 7 82
e 7 83
e 7 84
e 7 87
e 7 88
e 7 93
e 7 94
e 7 95
e 7 96
e 7 97
e 7 98
e 7 99
e 7 100
e 7 101
e 7 102
e 7 103
e 7 104
e 7 105
e 7 106
e 7 107
e 7 108
e 7 109
e 7 110
e 7 111
e 7 112
e 7 113
e 8 9
e 8 10
e 8 11
e 8 12
e 8 13
e 8 14
e 8 15
e 8 16
e 8 17
e 8 18
e 8 19
e 8 20
e 8 24
e 8 25
e 8 26
e 8 27
e 8 30
e 8 33
e 8 34
e 8 37
e 8 38
e 8 42
e 8 56
e 8 57
e 8 58
e 8 59
e 8 60
e 8 61
e 8 64
e 8 65
e 8 66
e 8 67
e 8 68
e 8 73
e 8 74
e 8 76
e 8 78
e 8 79
e 8 80
e 8 81
e 8 82
e 8 83
e 8 84
e 8 87
e 8 88
e 8 93
e 8 94
e 8 95
e 8 96
e 8 97
e 8 98
e 8 99
e 8 100
e 8 101
e 8 102
e 8 103
e 8 104
e 8 105
e 8 106
e 8 107
e 8 108
e 8 109
e 8 110
e 8 111
e 8 112
e 8 113
e 9 10
e 9 11
e 9 12
e 9 13
e 9 14
e 9 15
e 9 16
e 9 17
e 9 18
e 9 19
e 9 20
e 9 25
e 9 26
e 9 27
e 9 30
e 9 33
e 9 34
e 9 37
e 9 38
e 9 42
e 9 56
e 9 57
e 9 58
e 9 59
e 9 60
e 9 61
e 9 64
e 9 65
e 9 66
e 9 67
e 9 68
e 9 73
e 9 74
e 9 76
e 9 78
e 9 79
e 9 80
e 9 81
e 9 82
e 9 83
e 9 84
e 9 87
e 9 88
e 9 93
e 9 94
e 9 95
e 9 96
e 9 97
e 9 98
e 9 99
e 9 100
e 9 101
e 9 102
e 9 103
e 9 104
e 9 105
e 9 106
e 9 107
e 9 108
e 9 109
e 9 110
e 9 111
e 9 112
e 9 113
e 10 11
e 10 12
e 10 13
e 10 14
e 10 15
e 10 16
e 10 17
e 10 18
e 10 19
e 10 20
e 10 25
e 10 26
e 10 27
e 10 30
e 10 33
e 10 34
e 10 37
e 10 38
e 10 42
e 10 56
e 10 57
e 10 58
e 10 59
e 10 60
e 10 61
e 10 64
e 10 65
e 10 66
e 10 67
e 10 68
e 10 74
e 10 76
e 10 78
e 10 79
e 10 80
e 10 81
e 10 82
e 10 83
e 10 84
e 10 87
e 10 88
e 10 93
e 10 94
e 10 95
e 10 96
e 10 97
e 10 98
e 10 99
e 10 100
e 10 101
e 10 102
e 10 103
e 10 104
e 10 105
e 10 106
e 10 107
e 10 108
e 10 109
e 10 110
e 10 111
e 10 112
e 10 113
e 11 12
e 11 13
e 11 14
e 11 15
e 11 16
e 11 17
e 11 18
e 11 19
e 11 20
e 11 25
e 11 26
e 11 27
e 11 30
e 11 33
e 11 34
e 11 37
e 11 38
e 11 42
e 11 56
e 11 57
e 11 59
e 11 60
e 11 61
e 11 64
e 11 65
e 11 66
e 11 67
e 11 68
e 11 74
e 11 76
e 11 78
e 11 79
e 11 80
e 11 81
e 11 82
e 11 83
e 11 84
e 11 87
e 11 88
e 11 93
e 11 94
e 11 95
e 11 96
e 11 97
e 11 98
e 11 99
e 11 100
e 11 101
e 11 102
e 11 103
e 11 104
e 11 105
e 11 106
e 11 107
e 11 108
e 11 109
e 11 110
e 11 111
e 11 112
e 11 113
e 12 13
e 12 14
e 12 15
e 12 16
e 12 17
e 12 18
e 12 19
e 12 20
e 12 25
e 12 26
e 12 27
e 12 30
e 12 33
e 12 34
e 12 37
e 12 38
e 12 42
e 12 56
e 12 59
e 12 60
e 12 61
e 12 64
e 12 65
e 12 66
e 12 67
e 12 68
e 12 74
e 12 76
e 12 78
e 12 79
e 12 80
e 12 81
e 12 82
e 12 83
e 12 84
e 12 87
e 12 88
e 12 93
e 12 94
e 12 95
e 12 96
e 12 97
e 12 98
e 12 99
e 12 100
e 12 101
e 12 102
e 12 103
e 12 104
e 12 105
e 12 106
e 12 107
e 12 108
e 12 109
e 12 110
e 12 111
e 12 112
e 12 113
e 13 14
e 13 15
e 13 16
e 13 17
e 13 18
e 13 19
e 13 20
e 13 25
e 13 26
e 13 27
e 13 30
e 13 33
e 13 34
e 13 37
e 13 38
e 13 42
e 13 56
e 13 59
e 13 60
e 13 61
e 13 64
e 13 65
e 13 66
e 13 67
e 13 68
e 13 74
e 13 76
e 13 78
e 13 79
e 13 80
e 13 81
e 13 82
e 13 83
e 13 84
e 13 87
e 13 88
e 13 93
e 13 94
e 13 95
e 13 96
e 13 97
e 13 98
e 13 99
e 13 100
e 13 101
e 13 102
e 13 103
e 13 104
e 13 105
e 13 106
e 13 107
e 13 108
e 13 109
e 13 110
e 13 111
e 13 112
e 13 113
e 14 15
e 14 16
e 14 17
e 14 18
e 14 19
e 14 20
e 14 25
e 14 26
e 14 27
e 14 30
e 14 33
e 14 34
e 14 37
e 14 38
e 14 42
e 14 56
e 14 59
e 14 60
e 14 61
e 14 64
e 14 65
e 14 66
e 14 67
e 14 68
e 14 74
e 14 76
e 14 78
e 14 79
e 14 80
e 14 81
e 14 82
e 14 83
e 14 84
e 14 87
e 14 88
e 14 93
e 14 94
e 14 95
e 14 96
e 14 97
e 14 98
e 14 99
e 14 100
e 14 101
e 14 102
e 14 103
e 14 104
e 14 105
e 14 106
e 14 107
e 14 108
e 14 109
e 14 110
e 14 111
e 14 112
e 14 113
e 15 16
e 15 17
e 15 18
e 15 19
e 15 20
e 15 25
e 15 26
e 15 27
e 15 30
e 15 33
e 15 34
e 15 37
e 15 38
e 15 42
e 15 56
e 15 59
e 15 60
e 15 61
e 15 64
e 15 65
e 15 66
e 15 67
e 15 68
e 15 74
e 15 76
e 15 78
e 15 79
e 15 80
e 15 81
e 15 82
e 15 83
e 15 84
e 15 87
e 15 88
e 15 93
e 15 94
e 15 95
e 15 96
e 15 97
e 15 98
e 15 99
e 15 100
e 15 101
e 15 102
e 15 103
e 15 104
e 15 105
e 15 106
e 15 107
e 15 108
e 15 109
e 15 110
e 15 111
e 15 112
e 15 113
e 16 17
e 16 18
e 16 19
e 16 20
e 16 25
e 16 26
e 16 27
e 16 30
e 16 33
e 16 34
e 16 37
e 16 38
e 16 42
e 16 56
e 16 59
e 16 60
e 16 61
e 16 64
e 16 65
e 16 66
e 16 67
e 16 68
e 16 74
e 16 76
e 16 78
e 16 79
e 16 80
e 16 81
e 16 82
e 16 83
e 16 84
e 16 87
e 16 88
e 16 93
e 16 94
e 16 95
e 16 96
e 16 97
e 16 98
e 16 99
e 16 100
e 16 101
e 16 102
e 16 103
e 16 104
e 16 105
e 16 106
e 16 107
e 16 108
e 16 109
e 16 110
e 16 111
e 16 112
e 16 113
e 17 18
e 17 19
e 17 20
e 17 25
e 17 26
e 17 27
e 17 30
e 17 33
e 17 34
e 17 37
e 17 38
e 17 42
e 17 56
e 17 59
e 17 60
e 17 61
e 17 64
e 17 65
e 17 66
e 17 67
e 17 68
e 17 74
e 17 76
e 17 78
e 17 79
e 17 80
e 17 81
e 17 82
e 17 83
e 17 84
e 17 87
e 17 88
e 17 93
e 17 94
e 17 95
e 17 96
e 17 97
e 17 98
e 17 99
e 17 100
e 17 101
e 17 102
e 17 103
e 17 104
e 17 105
e 17 106
e 17 107
e 17 108
e 17 109
e 17 110
e 17 111
e 17 112
e 17 113
e 18 19
e 18 20
e 18 25
e 18 26
e 18 27
e 18 30
e 18 33
e 18 34
e 18 37
e 18 38
e 18 42
e 18 56
e 18 59
e 18 60
e 18 61
e 18 64
e 18 65
e 18 66
e 18 67
e 18 68
e 18 74
e 18 76
e 18 78
e 18 79
e 18 80
e 18 81
e 18 82
e 18 83
e 18 84
e 18 87
e 18 88
e 18 93
e 18 94
e 18 95
e 18 96
e 18 97
e 18 98
e 18 99
e 18 100
e 18 101
e 18 102
e 18 103
e 18 104
e 18 105
e 18 106
e 18 107
e 18 108
e 18 109
e 18 110
e 18 111
e 18 112
e 18 113
e 19 20
e 19 25
e 19 26
e 19 27
e 19 30
e 19 33
e 19 34
e 19 37
e 19 38
e 19 39
e 19 42
e 19 56
e 19 60
e 19 61
e 19 64
e 19 65
e 19 66
e 19 67
e 19 68
e 19 76
e 19 78
e 19 79
e 19 81
e 19 82
e 19 83
e 19 84
e 19 87
e 19 88
e 19 93
e 19 94
e 19 97
e 19 100
e 19 103
e 19 104
e 19 105
e 20 25
e 20 26
e 20 27
e 20 30
e 20 33
e 20 34
e 20 37
e 20 38
e 20 42
e 20 56
e 20 60
e 20 61
e 20 64
e 20 65
e 20 66
e 20 67
e 20 68
e 20 76
e 20 78
e 20 79
e 20 81
e 20 82
e 20 83
e 20 84
e 20 87
e 20 88
e 20 93
e 20 94
e 20 97
e 20 100
e 20 103
e 20 104
e 20 105
e 21 22
e 21 23
e 21 24
e 21 28
e 21 29
e 21 31
e 21 32
e 21 35
e 21 36
e 21 39
e 21 40
e 21 41
e 21 43
e 21 44
e 21 45
e 21 46
e 21 47
e 21 48
e 21 49
e 21 50
e 21 51
e 21 52
e 21 53
e 21 54
e 21 55
e 21 57
e 21 58
e 21 59
e 21 62
e 21 63
e 21 69
e 21 70
e 21 71
e 21 72
e 21 73
e 21 74
e 21 75
e 21 77
e 21 80
e 21 85
e 21 86
e 21 89
e 21 90
e 21 91
e 21 92
e 21 95
e 21 96
e 21 98
e 21 99
e 21 101
e 22 23
e 22 24
e 22 28
e 22 29
e 22 31
e 22 32
e 22 35
e 22 36
e 22 39
e 22 40
e 22 41
e 22 43
e 22 44
e 22 45
e 22 46
e 22 47
e 22 48
e 22 49
e 22 50
e 22 51
e 22 52
e 22 53
e 22 54
e 22 55
e 22 57
e 22 58
e 22 59
e 22 62
e 22 63
e 22 69
e 22 70
e 22 71
e 22 72
e 22 73
e 22 74
e 22 75
e 22 77
e 22 80
e 22 85
e 22 86
e 22 89
e 22 90
e 22 91
e 22 92
e 22 95
e 22 96
e 22 98
e 22 99
e 23 24
e 23 28
e 23 29
e 23 31
e 23 32
e 23 35
e 23 36
e 23 39
e 23 40
e 23 41
e 23 43
e 23 44
e 23 45
e 23 46
e 23 47
e 23 48
e 23 49
e 23 50
e 23 51
e 23 52
e 23 53
e 23 54
e 23 55
e 23 57
e 23 58
e 23 59
e 23 62
e 23 63
e 23 69
e 23 70
e 23 71
e 23 72
e 23 73
e 23 74
e 23 75
e 23 77
e 23 80
e 23 85
e 23 86
e 23 89
e 23 90
e 23 91
e 23 92
e 23 95
e 23 96
e 23 98
e 24 28
e 24 29
e 24 31
e 24 32
e 24 35
e 24 36
e 24 39
e 24 40
e 24 41
e 24 43
e 24 44
e 24 45
e 24 46
e 24 47
e 24 48
e 24 49
e 24 50
e 24 51
e 24 52
e 24 53
e 24 54
e 24 55
e 24 57
e 24 58
e 24 62
e 24 63
e 24 69
e 24 70
e 24 71
e 24 72
e 24 73
e 24 75
e 24 77
e 24 85
e 24 86
e 24 89
e 24 90
e 24 91
e 24 92
e 25 26
e 25 27
e 25 30
e 25 33
e 25 34
e 25 37
e 25 38
e 25 42
e 25 56
e 25 60
e 25 61
e 25 64
e 25 65
e 25 66
e 25 67
e 25 68
e 25 76
e 25 78
e 25 79
e 25 81
e 25 82
e 25 83
e 25 84
e 25 87
e 25 88
e 25 93
e 25 94
e 25 97
e 25 100
e 26 27
e 26 30
e 26 33
e 26 34
e 26 37
e 26 38
e 26 42
e 26 56
e 26 60
e 26 61
e 26 64
e 26 65
e 26 66
e 26 67
e 26 68
e 26 76
e 26 78
e 26 79
e 26 81
e 26 82
e 26 83
e 26 84
e 26 87
e 26 88
e 26 93
e 26 94
e 26 97
e 26 100
e 27 30
e 27 33
e 27 34
e 27 37
e 27 38
e 27 42
e 27 56
e 27 60
e 27 61
e 27 64
e 27 65
e 27 66
e 27 67
e 27 68
e 27 76
e 27 78
e 27 79
e 27 81
e 27 82
e 27 83
e 27 84
e 27 87
e 27 88
e 27 93
e 27 94
e 27 97
e 27 100
e 28 29
e 28 31
e 28 32
e 28 35
e 28 36
e 28 39
e 28 40
e 28 41
e 28 43
e 28 44
e 28 45
e 28 46
e 28 47
e 28 48
e 28 49
e 28 50
e 28 51
e 28 52
e 28 53
e 28 54
e 28 55
e 28 57
e 28 58
e 28 59
e 28 62
e 28 63
e 28 69
e 28 70
e 28 71
e 28 72
e 28 73
e 28 74
e 28 75
e 28 77
e 28 80
e 28 85
e 28 86
e 28 89
e 28 90
e 28 91
e 28 92
e 28 95
e 28 96
e 29 31
e 29 32
e 29 35
e 29 36
e 29 39
e 29 40
e 29 41
e 29 43
e 29 44
e 29 45
e 29 46
e 29 47
e 29 48
e 29 49
e 29 50
e 29 51
e 29 52
e 29 53
e 29 54
e 29 55
e 29 57
e 29 58
e 29 62
e 29 63
e 29 69
e 29 70
e 29 71
e 29 72
e 29 73
e 29 75
e 29 77
e 29 85
e 29 86
e 29 89
e 29 90
e 29 91
e 29 92
e 30 33
e 30 34
e 30 37
e 30 38
e 30 42
e 30 56
e 30 60
e 30 61
e 30 64
e 30 65
e 30 66
e 30 67
e 30 68
e 30 76
e 30 78
e 30 79
e 30 81
e 30 82
e 30 83
e 30 84
e 30 87
e 30 88
e 30 93
e 30 94
e 30 97
e 30 100
e 31 32
e 31 35
e 31 36
e 31 39
e 31 40
e 31 41
e 31 43
e 31 44
e 31 45
e 31 46
e 31 47
e 31 48
e 31 49
e 31 50
e 31 51
e 31 52
e 31 53
e 31 54
e 31 55
e 31 57
e 31 58
e 31 59
e 31 62
e 31 63
e 31 69
e 31 70
e 31 71
e 31 72
e 31 73
e 31 74
e 31 75
e 31 77
e 31 80
e 31 85
e 31 86
e 31 89
e 31 90
e 31 91
e 31 92
e 31 95
e 32 35
e 32 36
e 32 39
e 32 40
e 32 41
e 32 43
e 32 44
e 32 45
e 32 46
e 32 47
e 32 48
e 32 49
e 32 50
e 32 51
e 32 52
e 32 53
e 32 54
e 32 55
e 32 57
e 32 58
e 32 62
e 32 63
e 32 69
e 32 70
e 32 71
e 32 72
e 32 73
e 32 75
e 32 77
e 32 85
e 32 86
e 32 89
e 32 90
e 32 91
e 32 92
e 33 34
e 33 37
e 33 38
e 33 42
e 33 56
e 33 60
e 33 61
e 33 64
e 33 65
e 33 66
e 33 67
e 33 68
e 33 76
e 33 78
e 33 79
e 33 81
e 33 82
e 33 83
e 33 84
e 33 87
e 33 88
e 33 93
e 33 94
e 33 97
e 34 37
e 34 38
e 34 42
e 34 56
e 34 60
e 34 61
e 34 64
e 34 65
e 34 66
e 34 67
e 34 68
e 34 76
e 34 78
e 34 79
e 34 81
e 34 82
e 34 83
e 34 84
e 34 87
e 34 88
e 34 93
e 34 94
e 34 97
e 35 36
e 35 39
e 35 40
e 35 41
e 35 43
e 35 44
e 35 45
e 35 46
e 35 47
e 35 48
e 35 49
e 35 50
e 35 51
e 35 52
e 35 53
e 35 54
e 35 55
e 35 57
e 35 58
e 35 59
e 35 62
e 35 63
e 35 69
e 35 70
e 35 71
e 35 72
e 35 73
e 35 74
e 35 75
e 35 77
e 35 80
e 35 85
e 35 86
e 35 89
e 35 90
e 35 91
e 35 92
e 36 39
e 36 40
e 36 41
e 36 43
e 36 44
e 36 45
e 36 46
e 36 47
e 36 48
e 36 49
e 36 50
e 36 51
e 36 52
e 36 53
e 36 54
e 36 55
e 36 57
e 36 58
e 36 62
e 36 63
e 36 69
e 36 70
e 36 71
e 36 72
e 36 73
e 36 75
e 36 77
e 36 85
e 36 86
e 36 89
e 36 90
e 36 91
e 36 92
e 37 38
e 37 42
e 37 56
e 37 60
e 37 61
e 37 64
e 37 65
e 37 66
e 37 67
e 37 68
e 37 76
e 37 78
e 37 79
e 37 81
e 37 82
e 37 83
e 37 84
e 37 87
e 37 88
e 37 93
e 37 94
e 38 42
e 38 56
e 38 60
e 38 61
e 38 64
e 38 65
e 38 66
e 38 67
e 38 68
e 38 76
e 38 78
e 38 79
e 38 81
e 38 82
e 38 83
e 38 84
e 38 87
e 38 88
e 38 93
e 38 94
e 39 40
e 39 41
e 39 43
e 39 44
e 39 45
e 39 46
e 39 47
e 39 48
e 39 49
e 39 50
e 39 51
e 39 52
e 39 53
e 39 54
e 39 55
e 39 57
e 39 58
e 39 62
e 39 63
e 39 69
e 39 70
e 39 71
e 39 72
e 39 73
e 39 75
e 39 77
e 39 80
e 39 85
e 39 86
e 39 89
e 39 90
e 39 91
e 39 92
e 40 41
e 40 43
e 40 44
e 40 45
e 40 46
e 40 47
e 40 48
e 40 49
e 40 50
e 40 51
e 40 52
e 40 53
e 40 54
e 40 55
e 40 57
e 40 58
e 40 59
e 40 62
e 40 63
e 40 69
e 40 70
e 40 71
e 40 72
e 40 73
e 40 75
e 40 77
e 40 80
e 40 85
e 40 86
e 40 89
e 40 90
e 40 91
e 40 92
e 41 43
e 41 44
e 41 45
e 41 46
e 41 47
e 41 48
e 41 49
e 41 50
e 41 51
e 41 52
e 41 53
e 41 54
e 41 55
e 41 57
e 41 58
e 41 62
e 41 63
e 41 69
e 41 70
e 41 71
e 41 72
e 41 73
e 41 75
e 41 77
e 41 85
e 41 86
e 41 89
e 41 90
e 41 91
e 41 92
e 42 56
e 42 60
e 42 61
e 42 64
e 42 65
e 42 66
e 42 67
e 42 68
e 42 78
e 42 79
e 42 81
e 42 82
e 42 83
e 42 84
e 42 87
e 42 88
e 42 93
e 42 94
e 43 44
e 43 45
e 43 46
e 43 47
e 43 48
e 43 49
e 43 50
e 43 51
e 43 52
e 43 53
e 43 54
e 43 55
e 43 57
e 43 58
e 43 62
e 43 63
e 43 69
e 43 70
e 43 71
e 43 72
e 43 73
e 43 75
e 43 77
e 43 80
e 43 85
e 43 86
e 43 89
e 43 90
e 43 91
e 43 92
e 44 45
e 44 46
e 44 47
e 44 48
e 44 49
e 44 50
e 44 51
e 44 52
e 44 53
e 44 54
e 44 55
e 44 57
e 44 58
e 44 62
e 44 63
e 44 69
e 44 70
e 44 71
e 44 72
e 44 73
e 44 75
e 44 77
e 44 80
e 44 85
e 44 86
e 44 89
e 44 90
e 44 91
e 44 92
e 45 46
e 45 47
e 45 48
e 45 49
e 45 50
e 45 51
e 45 52
e 45 53
e 45 54
e 45 55
e 45 57
e 45 58
e 45 62
e 45 63
e 45 69
e 45 70
e 45 71
e 45 72
e 45 73
e 45 75
e 45 77
e 45 80
e 45 85
e 45 86
e 45 89
e 45 90
e 45 91
e 45 92
e 46 47
e 46 48
e 46 49
e 46 50
e 46 51
e 46 52
e 46 53
e 46 54
e 46 55
e 46 57
e 46 58
e 46 62
e 46 63
e 46 69
e 46 70
e 46 71
e 46 72
e 46 73
e 46 75
e 46 77
e 46 80
e 46 85
e 46 86
e 46 89
e 46 90
e 46 91
e 46 92
e 47 48
e 47 49
e 47 50
e 47 51
e 47 52
e 47 53
e 47 54
e 47 55
e 47 57
e 47 58
e 47 62
e 47 63
e 47 69
e 47 70
e 47 71
e 47 72
e 47 73
e 47 75
e 47 77
e 47 85
e 47 86
e 47 89
e 47 90
e 47 91
e 47 92
e 48 49
e 48 50
e 48 51
e 48 52
e 48 53
e 48 54
e 48 55
e 48 57
e 48 58
e 48 62
e 48 63
e 48 69
e 48 70
e 48 71
e 48 72
e 48 73
e 48 75
e 48 77
e 48 85
e 48 86
e 48 89
e 48 90
e 48 91
e 48 92
e 49 50
e 49 51
e 49 52
e 49 53
e 49 54
e 49 55
e 49 57
e 49 58
e 49 62
e 49 63
e 49 69
e 49 70
e 49 71
e 49 72
e 49 73
e 49 75
e 49 77
e 49 85
e 49 86
e 49 89
e 49 90
e 49 91
e 49 92
e 50 51
e 50 52
e 50 53
e 50 54
e 50 55
e 50 62
e 50 63
e 50 69
e 50 70
e 50 71
e 50 72
e 50 75
e 50 77
e 50 85
e 50 86
e 50 89
e 50 90
e 50 91
e 50 92
e 51 52
e 51 53
e 51 54
e 51 55
e 51 62
e 51 63
e 51 69
e 51 70
e 51 71
e 51 72
e 51 75
e 51 77
e 51 85
e 51 86
e 51 89
e 51 90
e 51 91
e 51 92
e 52 53
e 52 54
e 52 55
e 52 62
e 52 63
e 52 69
e 52 70
e 52 71
e 52 72
e 52 75
e 52 77
e 52 85
e 52 86
e 52 89
e 52 90
e 52 91
e 52 92
e 53 54
e 53 55
e 53 62
e 53 63
e 53 69
e 53 70
e 53 71
e 53 72
e 53 75
e 53 77
e 53 85
e 53 86
e 53 89
e 53 90
e 53 91
e 53 92
e 54 55
e 54 62
e 54 63
e 54 69
e 54 70
e 54 71
e 54 72
e 54 75
e 54 77
e 54 85
e 54 86
e 54 89
e 54 90
e 54 91
e 54 92
e 55 62
e 55 63
e 55 69
e 55 70
e 55 71
e 55 72
e 55 75
e 55 77
e 55 85
e 55 86
e 55 89
e 55 90
e 55 91
e 55 92
e 56 64
e 56 65
e 56 66
e 56 67
e 57 58
e 57 73
e 58 73
e 59 74
e 59 95
e 59 96
e 59 98
e 59 99
e 59 101
e 59 102
e 60 61
e 60 68
e 61 68
e 62 69
e 62 70
e 63 71
e 63 72
e 64 65
e 66 67
e 69 70
e 71 72
e 74 95
e 74 96
e 74 98
e 74 99
e 74 101
e 74 102
e 75 77
e 76 97
e 76 100
e 78 94
e 79 93
e 81 82
e 83 84
e 85 86
e 87 88
e 89 90
e 91 92
e 95 96
e 95 98
e 95 99
e 95 101
e 95 102
e 96 98
e 96 99
e 96 101
e 96 102
e 97 100
e 98 99
e 98 101
e 98 102
e 99 101
e 99 102
e 101 102
e 103 104
e 103 105
e 104 105
e 106 107
e 106 108
e 106 109
e 107 108
e 107 109
e 108 109
e 110 111
e 112 113
